submitit INFO (2023-04-30 19:21:39,061) - Starting with JobEnvironment(job_id=27533, hostname=cpunode3, local_rank=4(5), node=0(1), global_rank=4(5))
submitit INFO (2023-04-30 19:21:39,061) - Loading pickle: /h/30/pashootan/Matrix-Mult-CP/src/../logs/2x2x2_6_Apr30_19:21:35/27533_submitted.pkl
 ! --------------------------------------------------- CP Optimizer 22.1.1.0 --
 ! Satisfiability problem - 72 variables, 184 constraints
 ! TimeLimit            = 7200
 ! Workers              = 8
 ! LogPeriod            = 10000000
 ! RandomSeed           = 8692
 ! Initial process time : 0.00s (0.00s extraction + 0.00s propagation)
 !  . Log search space  : 114.1 (before), 114.1 (after)
 !  . Memory usage      : 535.3 kB (before), 535.3 kB (after)
 ! Using parallel search with 8 workers.
 ! ----------------------------------------------------------------------------
 !               Branches  Non-fixed    W       Branch decision
                   10000k          8    7   F     1 != W3_1
                   10000k          5    8         1 != W4_2
                   10000k          4    2        -1  = W4_1
                   10000k          5    4         0 != V3_2
                   10000k          5    1        -1 != W3_1
                   10000k          7    3   F    -1  = U1_3
                   10000k          4    5         0 != W1_0
                   10000k          4    6   F    -1 != V5_0
                   20000k          4    5         0 != V5_0
                   20000k          4    2   F     1 != W3_2
                   20000k          5    8   F    -1 != U0_3
                   20000k          7    7   F     0 != V2_1
                   20000k          5    4        -1  = U5_2
                   20000k          8    3        -1  = V5_3
                   20000k          5    1   F    -1  = V2_3
                   20000k          5    6         0  = V0_1
                   30000k          5    5   F    -1  = W2_1
                   30000k          4    2   F     0  = V0_3
                   30000k          4    8         0  = V4_0
                   30000k          6    7   F     0  = V1_1
 ! Time = 312.29s, Average fail depth = 15, Memory usage = 178.4 MB
 !               Branches  Non-fixed    W       Branch decision
                   30000k          6    1   F    -1  = W4_1
                   30000k         10    3   F     0  = V2_1
                   30000k          5    6   F     0  = V5_1
                   30000k          7    4        -1 != W0_1
                   40000k          5    8   F    -1  = U3_1
                   40000k          4    5         0  = U1_0
                   40000k          7    7         0  = U5_1
                   40000k          5    1        -1  = U0_1
                   40000k          9    3   F     0 != V5_3
                   40000k          5    4   F    -1  = U1_0
                   40000k          6    2   F     1  = V2_1
                   40000k          5    6         1 != U0_1
                   50000k          5    8         0 != W4_1
                   50000k          6    4         0 != W0_2
                   50000k          5    5         0 != W3_1
                   50000k          5    1         0 != U0_1
                   50000k          8    3         1  = V3_1
                   50000k          6    7         0  = U0_0
                   50000k          5    6        -1 != U0_0
                   50000k          5    2         1  = U1_1
 ! Time = 527.34s, Average fail depth = 15, Memory usage = 269.1 MB
 !               Branches  Non-fixed    W       Branch decision
                   60000k          5    8         0 != V0_2
                   60000k          5    4        -1 != V3_3
                   60000k          8    7        -1  = W0_2
                   60000k          5    1        -1  = V2_0
                   60000k          4    2         1 != V0_3
                   60000k          6    3   F    -1  = V3_1
                   60000k          8    5   F     1  = U3_1
                   60000k          5    6         0 != W1_3
                   70000k          6    8         1  = U0_1
                   70000k          8    7   F    -1 != V1_3
                   70000k          5    1   F    -1 != U5_0
                   70000k          6    4   F     1 != V2_1
                   70000k          4    2   F    -1 != W2_0
                   70000k          7    3         1  = U4_1
                   70000k          5    6         1 != U5_3
                   70000k          9    5   F    -1  = W1_0
                   80000k          5    8         1  = V1_1
                   80000k          5    1        -1 != V0_3
                   80000k          7    7        -1 != U0_1
                   80000k          6    2   F     0 != U2_0
 ! Time = 838.86s, Average fail depth = 15, Memory usage = 395.8 MB
 !               Branches  Non-fixed    W       Branch decision
                   80000k          6    4   F    -1  = V3_2
                   80000k          6    3        -1 != W4_1
                   80000k          4    6         0 != V0_1
                   80000k          6    5         1  = U0_3
                   90000k          5    8        -1  = W4_1
                   90000k          6    1   F    -1  = U4_2
                   90000k         10    7         0  = W5_1
                   90000k          5    2   F     1 != U0_3
                   90000k          7    3   F     0 != V3_1
                   90000k          5    4   F    -1 != U5_0
                   90000k          5    6   F     1  = W2_1
                   90000k          5    5   F     0  = V3_0
                     100M          5    8   F     1  = U3_1
                     100M          7    7         1 != U1_0
                     100M          4    2   F    -1 != W5_3
                     100M          5    1         0  = U3_2
                     100M          5    4         0  = W0_2
                     100M         12    3         0 != V0_3
                     100M          6    6        -1 != V1_0
                     100M          5    5         1  = V3_0
 ! Time = 1064.45s, Average fail depth = 15, Memory usage = 497.7 MB
 !               Branches  Non-fixed    W       Branch decision
                     110M          5    8         1 != U2_1
                     110M          4    1        -1 != W5_2
                     110M          6    2         0 != W1_2
                     110M          9    7   F    -1 != W5_1
                     110M          6    3         1 != W2_0
                     110M          5    4   F     0  = W5_0
                     110M          6    5   F    -1 != U5_0
                     110M          5    6   F     0  = V1_0
                     120M          4    1   F     1 != V4_2
                     120M          5    8   F     1  = U2_1
                     120M         12    3   F    -1  = V3_1
                     120M          5    2   F    -1  = U5_0
                     120M          5    4         1  = W0_1
                     120M          7    7   F     0  = U5_0
                     120M          5    5   F    -1  = W3_2
                     120M          7    6   F     0  = W3_1
                     130M          4    8            -
                     130M          4    1   F     0  = W5_2
                     130M          6    7         1  = W1_3
                     130M          4    4   F    -1 != U3_0
 ! Time = 1362.70s, Average fail depth = 15, Memory usage = 607.9 MB
 !               Branches  Non-fixed    W       Branch decision
                     130M          6    2   F     0 != W2_2
                     130M          7    3         1  = W5_0
                     130M          6    5        -1 != U5_3
                     130M          6    6         0 != V0_3
                     140M          4    8   F        -
                     140M          4    1         0 != V5_0
                     140M          4    4   F     1 != W2_1
                     140M          4    2         1 != U0_2
                     140M          8    3        -1 != V0_1
                     140M          8    7         0  = V0_2
                     140M          5    5   F     1  = V4_0
                     140M          8    6   F    -1  = V1_1
                     150M          4    1         1  = U1_1
                     150M          5    8   F    -1 != V3_3
                     150M          4    4         0  = U5_1
                     150M          5    2        -1  = W4_0
                     150M         11    3   F     1 != W5_2
                     150M         12    7        -1 != U5_3
                     150M          6    5   F     1  = V0_0
                     150M          9    6   F     1  = W2_2
 ! Time = 1641.43s, Average fail depth = 15, Memory usage = 701.0 MB
 !               Branches  Non-fixed    W       Branch decision
                     160M          5    8        -1 != U0_1
                     160M          4    1   F     0 != U1_1
                     160M          4    4         0 != V3_0
                     160M          5    2   F     1  = V4_3
                     160M          6    3         1 != V4_2
                     160M          8    7   F    -1 != W4_2
                     160M          5    5   F    -1  = W3_2
                     160M          6    6         0 != W4_1
                     170M          5    8   F     0  = V4_3
                     170M          4    4         0 != U1_1
                     170M          4    1         1  = W3_1
                     170M          5    2   F    -1 != V5_3
                     170M          9    3        -1 != W5_1
                     170M          8    7         0 != V2_0
                     170M          4    5   F     0  = W5_2
                     170M          6    6   F     1 != W4_1
                     180M          5    8            -
                     180M          4    4   F     0  = W5_2
                     180M          5    2   F    -1 != V0_0
                     180M          4    1   F     0  = W3_2
 ! Time = 1887.95s, Average fail depth = 16, Memory usage = 801.2 MB
 !               Branches  Non-fixed    W       Branch decision
                     180M          8    3         1 != W1_1
                     180M         12    7   F     0 != W5_0
                     180M          6    5   F     1  = U2_3
                     180M          6    6         1 != V5_0
                     190M          4    8   F    -1  = V1_1
                     190M          4    4   F     1  = W3_2
                     190M          5    2         1  = W3_1
                     190M          4    1         1  = W3_2
                     190M          6    3        -1 != W1_0
                     190M         12    7   F    -1  = V1_1
                     190M          5    5   F     0  = U1_0
                     190M          6    6         1 != V5_0
                     200M          5    8   F     1 != W1_1
                     200M          5    2   F     1  = W5_2
                     200M          5    4   F     1  = W1_2
                     200M          4    1        -1  = V4_0
                     200M          8    3        -1  = W2_3
                     200M          6    7   F     1 != W5_3
                     200M          6    5   F     0  = W3_2
                     200M          6    6        -1 != V3_0
 ! Time = 2177.47s, Average fail depth = 16, Memory usage = 913.5 MB
 !               Branches  Non-fixed    W       Branch decision
                     210M          5    8            -
                     210M          6    2   F    -1  = W1_1
                     210M          4    4        -1 != U5_2
                     210M          4    1         0  = V2_0
                     210M          7    7         0 != U2_2
                     210M          8    3   F     0  = V2_1
                     210M          6    5         1 != V2_3
                     210M          6    6         0  = W5_1
                     220M          5    8            -
                     220M          5    2   F     0 != V4_0
                     220M          4    4   F    -1 != W2_2
                     220M          4    1        -1 != W2_0
                     220M          7    7         0 != U3_2
                     220M          6    3        -1  = W0_3
                     220M          6    5   F    -1 != U3_3
                     220M          5    6        -1 != W0_1
                     230M          5    8   F    -1 != W4_1
                     230M          5    2   F    -1  = W0_1
                     230M          4    1   F     1 != U4_0
                     230M          4    4         1 != V0_2
 ! Time = 2424.88s, Average fail depth = 16, Memory usage = 1.0 GB
 !               Branches  Non-fixed    W       Branch decision
                     230M          8    7         0  = U2_2
                     230M          6    3         1 != V5_3
                     230M          5    5         0 != U3_3
                     230M          5    6        -1 != V2_3
                     240M          4    8            -
                     240M          4    1   F     1 != W4_1
                     240M          5    2   F     0 != U1_1
                     240M          4    4         0  = W0_2
                     240M          8    7        -1 != U2_0
                     240M          6    3   F     0  = U5_2
                     240M          6    5         0  = V2_0
                     240M          6    6   F     1  = W5_0
                     250M          4    8        -1 != U0_1
                     250M          4    1         1  = V5_0
                     250M          5    2         0  = U2_1
                     250M          7    7        -1  = W2_1
                     250M          4    4         0  = W3_2
                     250M          6    3   F     0 != U1_3
                     250M          5    5         1 != U3_3
                     250M          6    6   F    -1  = V0_3
 ! Time = 2699.25s, Average fail depth = 16, Memory usage = 1.1 GB
 !               Branches  Non-fixed    W       Branch decision
                     260M          4    8            -
                     260M          4    1   F     1  = U0_3
                     260M          6    2   F     0 != U5_3
                     260M          7    7        -1 != U1_0
                     260M          4    4         0 != W4_2
                     260M          8    3   F    -1 != W5_3
                     260M          5    5   F    -1 != V3_0
                     260M          5    6   F     1  = U2_1
                     270M          4    8            -
                     270M          4    1        -1 != W0_1
                     270M          6    2   F    -1 != V0_1
                     270M          4    4        -1 != V4_0
                     270M          8    7         1 != U1_2
                     270M         10    3   F    -1  = V0_1
                     270M          6    5   F     1  = V2_1
                     270M          7    6         1  = W0_3
                     280M          4    8        -1 != W4_0
                     280M          4    1         0 != V1_3
                     280M          6    2   F     0  = W0_3
                     280M         10    7        -1  = V3_2
 ! Time = 2959.77s, Average fail depth = 16, Memory usage = 1.2 GB
 !               Branches  Non-fixed    W       Branch decision
                     280M          4    4   F     1 != V0_3
                     280M          9    3   F     0  = W0_3
                     280M          6    5         1 != U0_1
                     280M          6    6   F     1 != V3_3
                     290M          4    8   F    -1  = V3_0
                     290M          5    2        -1 != V1_2
                     290M          4    1        -1 != W0_1
                     290M          8    7   F     0 != W0_3
                     290M         10    3   F    -1 != W2_1
                     290M          4    4         1 != U4_0
                     290M          6    5   F     1  = W1_1
                     290M          5    6        -1 != W0_1
                     300M          4    8   F    -1 != W1_1
                     300M          4    1   F     1 != U0_3
                     300M          6    2   F     1 != V3_3
                     300M          9    7         1 != V0_2
                     300M          7    3   F    -1  = U4_0
                     300M          4    4   F    -1 != W4_2
                     300M          6    5   F    -1 != V1_3
                     300M          6    6   F    -1 != U3_2
 ! Time = 3237.50s, Average fail depth = 15, Memory usage = 1.4 GB
 !               Branches  Non-fixed    W       Branch decision
                     310M          4    8   F     1 != V5_2
                     310M          4    1        -1 != W3_1
                     310M          5    2   F     0  = V2_3
                     310M         10    7         1  = W0_3
                     310M          8    3   F     0  = W4_2
                     310M          4    4   F     0  = U5_0
                     310M          5    5        -1 != W2_1
                     320M          4    8   F     0 != W0_2
                     310M          5    6   F    -1  = V1_0
                     320M          4    1         1 != W0_2
                     320M          5    2         0 != W3_1
                     320M          8    7        -1 != U1_1
                     320M          4    4   F     0  = W1_1
                     320M          7    3   F     0  = W2_1
                     320M          6    5         0  = U1_3
                     320M          6    6   F     0  = V3_1
                     330M          4    8            -
                     330M          4    1         0 != W4_3
                     330M         10    7        -1  = V2_2
                     330M          6    2        -1 != U2_0
 ! Time = 3475.06s, Average fail depth = 15, Memory usage = 1.5 GB
 !               Branches  Non-fixed    W       Branch decision
                     330M          4    4   F     0  = U3_0
                     330M         11    3   F    -1 != V2_2
                     330M          6    5   F     0  = W3_1
                     340M          4    8   F    -1  = V2_1
                     330M          5    6        -1  = V5_2
                     340M          4    1         0 != U5_1
                     340M          6    7   F     0  = V2_2
                     340M          5    2   F    -1 != U0_2
                     340M          4    4         0  = W2_0
                     340M          8    3   F    -1 != U2_1
                     340M          6    5        -1 != V1_3
                     340M          6    6   F    -1  = W1_1
                     350M          4    8   F    -1  = U1_0
                     350M          4    1   F     1  = V2_0
                     350M         12    7        -1 != U4_3
                     350M          5    2         1 != V3_0
                     350M          4    4   F     1  = U2_2
                     350M         12    3        -1 != U5_0
                     350M          6    5        -1  = V0_0
                     360M          4    8   F    -1  = V5_0
 ! Time = 3763.67s, Average fail depth = 15, Memory usage = 1.6 GB
 !               Branches  Non-fixed    W       Branch decision
                     350M          4    6         1 != U5_3
                     360M          4    1         0  = V2_0
                     360M          6    7   F    -1  = U2_1
                     360M          6    2   F     0  = W1_0
                     360M          4    4         1 != U1_0
                     360M         10    3         0 != U2_3
                     360M          6    5   F    -1  = W0_1
                     360M          5    6   F    -1  = U0_2
                     370M          4    8        -1  = W2_1
                     370M          4    1         0  = U1_3
                     370M          7    7   F    -1  = V2_1
                     370M          6    2   F    -1 != W3_0
                     370M          4    4         1 != V5_2
                     370M         10    3   F     0 != U4_2
                     370M          5    5         0 != W3_3
                     380M          4    8            -
                     370M          5    6   F     0  = W5_0
                     380M         15    7         0 != V1_1
                     380M          4    1         0  = V4_0
                     380M          6    2        -1 != W1_2
 ! Time = 3994.77s, Average fail depth = 15, Memory usage = 1.7 GB
 !               Branches  Non-fixed    W       Branch decision
                     380M          4    4         1  = W5_1
                     380M         15    3   F     0  = U0_2
                     380M          6    5   F     0  = W3_0
                     390M          4    8            -
                     380M          5    6         0  = W3_3
                     390M          8    7   F    -1  = V4_0
                     390M          4    1         0 != W4_3
                     390M          4    2   F     1 != U2_0
                     390M          6    3        -1 != W4_1
                     390M          4    4         1 != V0_0
                     390M          6    5   F     1  = V4_1
                     390M          5    6        -1  = W1_1
                     400M          4    8         1  = W4_3
                     400M          8    7   F     1  = W0_3
                     400M          4    1        -1 != V3_0
                     400M          5    2         0 != W0_1
                     400M         10    3         1 != U1_3
                     400M          4    4   F     1  = U3_2
                     400M          6    5        -1  = U1_3
                     410M          5    8   F    -1 != U5_0
 ! Time = 4289.31s, Average fail depth = 15, Memory usage = 1.8 GB
 !               Branches  Non-fixed    W       Branch decision
                     400M          5    6   F     0 != U3_3
                     410M         11    7   F     0  = W4_0
                     410M          4    1   F     1  = V1_0
                     410M          6    2   F     0  = U3_2
                     410M          4    4   F     1 != W2_3
                     410M          6    3        -1  = U2_1
                     410M          5    5         0  = U5_0
                     420M          4    8        -1 != W0_0
                     410M          5    6        -1  = U3_1
                     420M          4    1   F     0  = V2_0
                     420M          8    7   F     0  = V0_0
                     420M          4    4         1 != V5_2
                     420M          7    2         1 != U2_3
                     420M          6    3         0 != W2_3
                     420M          4    5   F     1 != W3_2
                     420M          6    6        -1  = U0_0
                     430M          5    8        -1  = U0_3
                     430M          4    1         1 != W4_3
                     430M          5    7        -1 != V4_3
                     430M          6    2         1  = V5_0
 ! Time = 4529.04s, Average fail depth = 15, Memory usage = 1.9 GB
 !               Branches  Non-fixed    W       Branch decision
                     430M          5    4   F     0 != W1_1
                     430M         10    3   F     0 != V3_1
                     430M          6    5   F    -1 != W3_0
                     430M          4    6        -1 != W0_1
                     440M          5    8         0  = V0_2
                     440M          4    1   F    -1  = U2_0
                     440M         15    7   F     0  = V0_1
                     440M          6    2         1  = V0_0
                     440M         15    3   F     0  = V2_2
                     440M          4    4        -1  = V3_1
                     440M          5    5   F     1  = U5_0
                     440M          6    6   F     0  = U0_2
                     450M          4    8        -1  = V2_3
                     450M          8    7   F    -1  = V5_1
                     450M          4    1        -1 != W4_2
                     450M          7    3         1  = W2_0
                     450M          5    2   F     1 != V2_2
                     450M          4    4   F     1  = V5_3
                     450M          5    5         0 != V3_0
                     450M          5    6         0 != U1_2
 ! Time = 4796.93s, Average fail depth = 15, Memory usage = 2.0 GB
 !               Branches  Non-fixed    W       Branch decision
                     460M          4    8   F     1  = W1_1
                     460M          4    1   F    -1  = W4_2
                     460M         10    7   F     0 != V5_2
                     460M         10    3   F    -1 != V5_0
                     460M          5    2   F    -1 != W0_3
                     460M          4    4         1  = V4_0
                     460M          7    5         0 != U0_0
                     460M          6    6         0 != U3_1
                     470M          4    8   F     0 != W3_1
                     470M          4    1   F     1 != V3_1
                     470M         10    7   F     1 != U5_2
                     470M          5    2   F    -1  = W5_1
                     470M          4    4        -1  = V4_2
                     470M         10    3   F    -1 != U2_2
                     470M          5    5        -1  = V1_0
                     470M          5    6   F    -1 != V4_1
                     480M          4    8         0 != W1_1
                     480M          4    1   F     1 != W0_0
                     480M         12    7         1 != V2_0
                     480M          5    2   F    -1  = W3_2
 ! Time = 5051.99s, Average fail depth = 15, Memory usage = 2.1 GB
 !               Branches  Non-fixed    W       Branch decision
                     480M          4    4   F     0 != W5_1
                     480M         10    3   F     0  = U4_0
                     480M          6    5   F     0  = V3_3
                     480M          5    6   F    -1 != W5_0
                     490M          4    8   F    -1 != U5_2
                     490M          4    1         1  = W2_3
                     490M          9    7         0 != U4_2
                     490M          5    2         0 != V1_2
                     490M          4    4         0 != W2_2
                     490M         10    3   F     0  = V2_1
                     490M          5    5        -1  = W4_0
                     500M          4    8        -1  = V1_3
                     490M          6    6        -1  = W5_1
                     500M          4    1   F    -1  = U4_2
                     500M          9    7   F    -1 != V4_0
                     500M          6    2        -1 != V0_3
                     500M          4    4         0  = V5_2
                     500M         13    3   F    -1 != V2_2
                     500M          6    5   F     1 != W1_3
                     510M          5    8   F     0  = U3_2
 ! Time = 5326.86s, Average fail depth = 15, Memory usage = 2.2 GB
 !               Branches  Non-fixed    W       Branch decision
                     500M          5    6        -1 != V3_3
                     510M          4    1         0  = U0_1
                     510M          6    7   F    -1 != V1_1
                     510M          5    2   F     1  = U2_2
                     510M          8    3        -1  = U3_1
                     510M          4    4   F     1  = V1_3
                     510M          6    5        -1 != W2_1
                     520M          5    8        -1 != W1_1
                     510M          5    6   F     1 != U0_0
                     520M          4    1         0 != U1_0
                     520M         15    7   F    -1 != V2_1
                     520M          5    2         0 != U0_0
                     520M          9    3        -1 != W2_0
                     520M          4    4         1 != W2_3
                     520M          5    5         0 != V2_3
                     530M          5    8         0 != U2_0
                     520M          4    6   F     0 != W5_0
                     530M          4    1        -1  = W1_2
                     530M          7    7   F    -1 != V5_2
                     530M          6    2         0 != U5_2
 ! Time = 5569.88s, Average fail depth = 15, Memory usage = 2.3 GB
 !               Branches  Non-fixed    W       Branch decision
                     530M          8    3         1 != W0_2
                     530M          4    4         0  = V3_1
                     530M          6    5   F     0  = V5_3
                     540M          5    8   F    -1 != W2_1
                     540M          4    1         1  = V3_2
                     530M          6    6   F    -1  = W1_1
                     540M          7    7   F    -1 != W5_0
                     540M          6    2         0  = W5_2
                     540M         10    3         1 != V0_2
                     540M          4    4         1 != W3_0
                     540M          6    5   F     1 != U4_2
                     550M          4    8        -1  = W4_1
                     550M          4    1        -1 != W0_2
                     550M         12    7         1 != W2_2
                     540M          6    6   F    -1 != W4_0
                     550M          5    2         1  = U0_1
                     550M          4    4   F     1 != V0_3
                     550M          7    3   F     1  = W4_0
                     550M          5    5         0  = W5_2
                     560M          4    8        -1  = U3_0
 ! Time = 5850.70s, Average fail depth = 15, Memory usage = 2.4 GB
 !               Branches  Non-fixed    W       Branch decision
                     560M          4    1   F    -1 != V4_0
                     560M          6    7        -1  = W2_1
                     550M          5    6   F    -1 != W3_3
                     560M          6    2         0 != W0_1
                     560M          4    4   F     0  = V3_0
                     560M          5    5         1  = U3_3
                     560M         10    3   F     0 != U3_1
                     570M          4    8   F     0 != V4_1
                     570M          4    1         0  = U1_3
                     560M          5    6   F    -1 != U0_1
                     570M          5    2   F    -1  = U1_1
                     570M          7    7   F     0 != U3_2
                     570M          4    4   F     1 != W4_2
                     570M          5    5   F     0  = W2_1
                     570M          9    3   F     0 != V5_2
                     580M          4    8         0 != U3_0
                     580M          4    1        -1  = V1_3
                     570M          5    6        -1  = U2_2
                     580M          5    2        -1 != U1_1
                     580M         10    7   F     0 != V4_0
 ! Time = 6090.56s, Average fail depth = 15, Memory usage = 2.5 GB
 !               Branches  Non-fixed    W       Branch decision
                     580M          4    4   F    -1  = W0_0
                     580M          5    5        -1  = W0_3
                     580M         12    3        -1  = V0_1
                     590M          4    8   F    -1 != U5_1
                     590M          4    1         0 != U3_3
                     580M          4    6   F     0  = U0_2
                     590M          8    7   F    -1 != V3_1
                     590M          5    2         1  = W1_1
                     590M          5    4         0  = V0_0
                     590M         10    5   F     0  = W1_0
                     590M         15    3   F    -1  = V2_2
                     600M          4    8            -
                     600M          4    1   F     1 != W3_2
                     600M         15    7   F     0 != V3_1
                     600M          5    2   F     1  = W5_0
                     590M          4    6        -1  = V1_3
                     600M          4    4   F     1 != W0_1
                     600M          5    5         0  = W5_0
                     600M         10    3        -1 != U5_2
                     610M          4    8   F     1 != W0_1
 ! Time = 6363.16s, Average fail depth = 15, Memory usage = 2.7 GB
 !               Branches  Non-fixed    W       Branch decision
                     610M          4    1   F    -1 != U2_1
                     610M          6    7   F    -1 != W2_1
                     600M          5    6   F     0  = V2_1
                     610M          4    2         1 != W1_1
                     610M          4    4         1  = W1_1
                     610M          7    5         1  = U2_3
                     610M          9    3        -1 != U2_3
                     620M          4    1         1 != V2_2
                     620M          4    8         0 != U1_1
                     620M         10    7   F    -1 != W4_2
                     610M          6    6         0  = V0_2
                     620M          6    2   F    -1  = U2_2
                     620M          7    5        -1  = V2_0
                     620M          4    4         0 != U3_3
                     620M         12    3   F     1  = V3_2
                     630M          6    8            -
                     630M          4    1   F    -1 != W5_1
                     630M         12    7         1 != U3_2
                     620M          5    6         0  = U4_2
                     630M          6    2   F     1 != V4_1
 ! Time = 6628.34s, Average fail depth = 15, Memory usage = 2.8 GB
 !               Branches  Non-fixed    W       Branch decision
                     630M          6    5   F     0 != W5_2
                     630M          4    4        -1  = W0_3
                     630M         12    3   F     1 != U4_2
                     640M          4    1   F    -1  = U0_3
                     640M          4    8        -1 != W0_0
                     640M          7    7   F     0  = V3_2
                     630M          5    6   F    -1  = U4_2
                     640M          5    2         0  = V0_1
                     640M          5    5   F     1  = V1_3
                     640M          4    4   F     1  = W0_3
                     640M         10    3   F     0  = V0_2
                     650M          5    8         0  = W5_2
                     650M          4    1         1 != U3_2
                     650M         11    7         0  = V1_2
                     640M          5    6         1 != W2_1
                     650M          5    2         0  = U4_3
                     650M          5    5         1 != U2_3
                     650M          6    4        -1 != W4_0
                     650M          8    3         0  = V5_0
                     660M          4    8   F    -1  = V4_2
 ! Time = 6890.11s, Average fail depth = 15, Memory usage = 2.8 GB
 !               Branches  Non-fixed    W       Branch decision
                     660M          4    1        -1 != V3_3
                     660M         10    7         0  = V2_1
                     650M          5    6   F     1  = W2_0
                     660M          4    2   F     0  = U4_2
                     660M          5    5   F     1  = U3_2
                     660M          4    4   F     1 != U3_2
                     670M          4    1        -1  = W1_2
                     670M          4    8        -1 != W1_1
                     660M          9    3   F    -1  = V1_1
                     670M         13    7   F    -1 != W2_2
                     660M          5    6   F    -1  = U4_1
                     670M          5    2         0 != U4_1
                     670M          5    5         1  = U1_2
                     670M          4    4         1  = U0_1
                     680M          4    1   F     1 != V5_0
                     670M         15    3   F    -1 != V3_1
                     680M          4    8   F     0  = W1_0
                     680M         15    7         0  = V1_1
                     670M          4    6         1 != W3_1
                     680M          5    2         1  = W0_0
 ! Time = 7136.18s, Average fail depth = 15, Memory usage = 3.0 GB
 !               Branches  Non-fixed    W       Branch decision
submitit WARNING (2023-04-30 21:20:42,316) - Bypassing signal SIGCONT
submitit INFO (2023-04-30 21:20:42,317) - Job has timed out. Ran 119 minutes out of requested 121 minutes.
submitit WARNING (2023-04-30 21:20:42,317) - Caught signal SIGUSR2 on cpunode3: this job is timed-out.
submitit INFO (2023-04-30 21:20:42,317) - Not checkpointing nor requeuing since I am a slave (procid=4).
                     680M          6    5         0  = V3_1
                     680M          4    4         1 != W4_0
                     680M         12    3   F     0  = U2_3
                     690M          4    8   F     0  = W2_2
                     690M          4    1        -1 != W3_0
 ! ----------------------------------------------------------------------------
 ! Search terminated by limit, no solution found.
 ! ----------------------------------------------------------------------------
 ! Number of branches     : 5481301972
 ! Number of fails        : 2680168972
 ! Total memory usage     : 3.1 GB (3.1 GB CP Optimizer + 0.0 GB Concert)
 ! Time spent in solve    : 7200.06s (7200.06s engine + 0.00s extraction)
 ! Search speed (br. / s) : 761286.7
 ! ----------------------------------------------------------------------------
Unknown
Saving stats to: /h/30/pashootan/Matrix-Mult-CP/logs/2x2x2_6_Apr30_19:21:35/27533_4_stats.csv
submitit INFO (2023-04-30 21:21:40,068) - Job completed successfully
